p edge 38 266
e 1 4
e 1 14
e 1 17
e 1 20
e 1 34
e 1 35
e 1 36
e 2 3
e 2 15
e 2 16
e 2 22
e 2 29
e 2 29
e 2 36
e 3 10
e 3 16
e 3 21
e 3 25
e 3 27
e 3 28
e 3 36
e 4 5
e 4 6
e 4 10
e 4 15
e 4 19
e 4 23
e 4 36
e 5 3
e 5 4
e 5 4
e 5 17
e 5 25
e 5 28
e 5 33
e 6 11
e 6 14
e 6 16
e 6 23
e 6 26
e 6 27
e 6 38
e 7 12
e 7 14
e 7 15
e 7 20
e 7 21
e 7 23
e 7 25
e 8 3
e 8 7
e 8 9
e 8 11
e 8 14
e 8 19
e 8 33
e 9 13
e 9 14
e 9 18
e 9 19
e 9 31
e 9 34
e 9 34
e 10 5
e 10 11
e 10 25
e 10 31
e 10 31
e 10 37
e 10 38
e 11 2
e 11 5
e 11 5
e 11 6
e 11 8
e 11 13
e 11 21
e 12 1
e 12 3
e 12 4
e 12 8
e 12 14
e 12 17
e 12 33
e 13 3
e 13 5
e 13 14
e 13 21
e 13 23
e 13 30
e 13 34
e 14 3
e 14 11
e 14 12
e 14 16
e 14 20
e 14 22
e 14 26
e 15 16
e 15 22
e 15 22
e 15 24
e 15 26
e 15 30
e 15 30
e 16 3
e 16 5
e 16 12
e 16 14
e 16 18
e 16 24
e 16 31
e 17 8
e 17 12
e 17 13
e 17 21
e 17 34
e 17 34
e 17 35
e 18 2
e 18 7
e 18 11
e 18 32
e 18 32
e 18 33
e 18 37
e 19 6
e 19 9
e 19 10
e 19 25
e 19 28
e 19 29
e 19 37
e 20 6
e 20 11
e 20 13
e 20 18
e 20 32
e 20 35
e 20 35
e 21 1
e 21 5
e 21 7
e 21 10
e 21 11
e 21 31
e 21 34
e 22 5
e 22 9
e 22 28
e 22 29
e 22 34
e 22 36
e 22 37
e 23 12
e 23 15
e 23 22
e 23 29
e 23 33
e 23 34
e 23 38
e 24 2
e 24 9
e 24 16
e 24 19
e 24 22
e 24 30
e 24 32
e 25 2
e 25 12
e 25 14
e 25 24
e 25 28
e 25 33
e 25 35
e 26 3
e 26 6
e 26 19
e 26 27
e 26 28
e 26 28
e 26 36
e 27 5
e 27 5
e 27 8
e 27 9
e 27 26
e 27 34
e 27 38
e 28 1
e 28 5
e 28 17
e 28 21
e 28 25
e 28 27
e 28 35
e 29 8
e 29 9
e 29 13
e 29 19
e 29 28
e 29 32
e 29 38
e 30 7
e 30 16
e 30 27
e 30 29
e 30 37
e 30 38
e 30 38
e 31 1
e 31 1
e 31 4
e 31 6
e 31 9
e 31 23
e 31 24
e 32 5
e 32 12
e 32 20
e 32 21
e 32 23
e 32 24
e 32 30
e 33 3
e 33 8
e 33 9
e 33 10
e 33 11
e 33 23
e 33 25
e 34 5
e 34 9
e 34 12
e 34 13
e 34 18
e 34 19
e 34 27
e 35 9
e 35 10
e 35 15
e 35 24
e 35 25
e 35 30
e 35 34
e 36 7
e 36 7
e 36 17
e 36 17
e 36 30
e 36 35
e 36 38
e 37 2
e 37 5
e 37 19
e 37 21
e 37 24
e 37 25
e 37 29
e 38 1
e 38 4
e 38 5
e 38 17
e 38 19
e 38 23
e 38 34
